angiejc.lp
\ Model JSuperPoly
\ LP format - for model browsing. Use MPS format to capture full model detail.
Minimize
 
Subject To
 R0: - K_0 + RK^0_0 = 0
 R1: - K_0 + flag_0 = 0
 R2: - K_1 + RK^0_1 = 0
 R3: - K_1 + flag_1 = 0
 R4: - K_2 + RK^0_2 = 0
 R5: - K_2 + flag_2 = 0
 R6: - K_3 + RK^0_3 = 0
 R7: - K_3 + flag_3 = 0
 R8: - K_4 + RK^0_4 = 0
 R9: - K_4 + flag_4 = 0
 R10: - K_5 + RK^0_5 = 0
 R11: - K_5 + flag_5 = 0
 R12: - K_6 + RK^0_6 = 0
 R13: - K_6 + flag_6 = 0
 R14: - K_7 + RK^0_7 = 0
 R15: - K_7 + flag_7 = 0
 R16: - K_8 + RK^0_8 = 0
 R17: - K_8 + flag_8 = 0
 R18: - K_9 + RK^0_9 = 0
 R19: - K_9 + flag_9 = 0
 R20: - K_10 + RK^0_10 = 0
 R21: - K_10 + flag_10 = 0
 R22: - K_11 + RK^0_11 = 0
 R23: - K_11 + flag_11 = 0
 R24: - K_12 + RK^0_12 = 0
 R25: - K_12 + flag_12 = 0
 R26: - K_13 + RK^0_13 = 0
 R27: - K_13 + flag_13 = 0
 R28: - K_14 + RK^0_14 = 0
 R29: - K_14 + flag_14 = 0
 R30: - K_15 + RK^0_15 = 0
 R31: - K_15 + flag_15 = 0
 R32: - RK^0_0 + RK^0_0_copy1 <= 0
 R33: - RK^0_0 + RK^0_0_copy2 <= 0
 R34: RK^0_0 - RK^0_0_copy1 - RK^0_0_copy2 <= 0
 R35: - L^0_0 + L^0_0_copy1 <= 0
 R36: - L^0_0 + L^0_0_copy2 <= 0
 R37: L^0_0 - L^0_0_copy1 - L^0_0_copy2 <= 0
 R38: a^1_0 - RK^0_0_copy2 = 0
 R39: a^1_0 - L^0_0_copy2 = 0
 R40: - b^1_0 + R^0_0_copy2 = 0
 R41: - b^1_0 + c^1_0 >= 0
 R42: - a^1_0 - b^1_0 + c^1_0 = 0
 R43: - c^1_1 + c^1_1_0_copy1 <= 0
 R44: - c^1_1 + c^1_1_0_copy2 <= 0
 R45: c^1_1 - c^1_1_0_copy1 - c^1_1_0_copy2 <= 0
 R46: - c^1_2 + c^1_2_0_copy1 <= 0
 R47: - c^1_2 + c^1_2_0_copy2 <= 0
 R48: c^1_2 - c^1_2_0_copy1 - c^1_2_0_copy2 <= 0
 R49: d^1_0 - c^1_1_0_copy2 = 0
 R50: d^1_0 - c^1_2_0_copy2 = 0
 R51: e^1_0 - d^1_0 >= 0
 R52: - c^1_0 + e^1_0 - d^1_0 = 0
 R53: - RK^0_1 + RK^0_1_copy1 <= 0
 R54: - RK^0_1 + RK^0_1_copy2 <= 0
 R55: RK^0_1 - RK^0_1_copy1 - RK^0_1_copy2 <= 0
 R56: - L^0_1 + L^0_1_copy1 <= 0
 R57: - L^0_1 + L^0_1_copy2 <= 0
 R58: L^0_1 - L^0_1_copy1 - L^0_1_copy2 <= 0
 R59: a^1_1 - RK^0_1_copy2 = 0
 R60: a^1_1 - L^0_1_copy2 = 0
 R61: - b^1_1 + R^0_1_copy2 = 0
 R62: - b^1_1 + c^1_1_0_copy1 >= 0
 R63: - a^1_1 - b^1_1 + c^1_1_0_copy1 = 0
 R64: - c^1_2_0_copy1 + c^1_1_1_copy1 <= 0
 R65: - c^1_2_0_copy1 + c^1_1_1_copy2 <= 0
 R66: c^1_2_0_copy1 - c^1_1_1_copy1 - c^1_1_1_copy2 <= 0
 R67: - c^1_3 + c^1_2_1_copy1 <= 0
 R68: - c^1_3 + c^1_2_1_copy2 <= 0
 R69: c^1_3 - c^1_2_1_copy1 - c^1_2_1_copy2 <= 0
 R70: d^1_1 - c^1_1_1_copy2 = 0
 R71: d^1_1 - c^1_2_1_copy2 = 0
 R72: e^1_1 - d^1_1 >= 0
 R73: e^1_1 - d^1_1 - c^1_1_0_copy1 = 0
 R74: - RK^0_2 + RK^0_2_copy1 <= 0
 R75: - RK^0_2 + RK^0_2_copy2 <= 0
 R76: RK^0_2 - RK^0_2_copy1 - RK^0_2_copy2 <= 0
 R77: - L^0_2 + L^0_2_copy1 <= 0
 R78: - L^0_2 + L^0_2_copy2 <= 0
 R79: L^0_2 - L^0_2_copy1 - L^0_2_copy2 <= 0
 R80: a^1_2 - RK^0_2_copy2 = 0
 R81: a^1_2 - L^0_2_copy2 = 0
 R82: - b^1_2 + R^0_2_copy2 = 0
 R83: - b^1_2 + c^1_1_1_copy1 >= 0
 R84: - a^1_2 - b^1_2 + c^1_1_1_copy1 = 0
 R85: - c^1_2_1_copy1 + c^1_1_2_copy1 <= 0
 R86: - c^1_2_1_copy1 + c^1_1_2_copy2 <= 0
 R87: c^1_2_1_copy1 - c^1_1_2_copy1 - c^1_1_2_copy2 <= 0
 R88: - c^1_4 + c^1_2_2_copy1 <= 0
 R89: - c^1_4 + c^1_2_2_copy2 <= 0
 R90: c^1_4 - c^1_2_2_copy1 - c^1_2_2_copy2 <= 0
 R91: d^1_2 - c^1_1_2_copy2 = 0
 R92: d^1_2 - c^1_2_2_copy2 = 0
 R93: e^1_2 - d^1_2 >= 0
 R94: e^1_2 - d^1_2 - c^1_1_1_copy1 = 0
 R95: - RK^0_3 + RK^0_3_copy1 <= 0
 R96: - RK^0_3 + RK^0_3_copy2 <= 0
 R97: RK^0_3 - RK^0_3_copy1 - RK^0_3_copy2 <= 0
 R98: - L^0_3 + L^0_3_copy1 <= 0
 R99: - L^0_3 + L^0_3_copy2 <= 0
 R100: L^0_3 - L^0_3_copy1 - L^0_3_copy2 <= 0
 R101: a^1_3 - RK^0_3_copy2 = 0
 R102: a^1_3 - L^0_3_copy2 = 0
 R103: - b^1_3 + R^0_3_copy2 = 0
 R104: - b^1_3 + c^1_1_2_copy1 >= 0
 R105: - a^1_3 - b^1_3 + c^1_1_2_copy1 = 0
 R106: - c^1_2_2_copy1 + c^1_1_3_copy1 <= 0
 R107: - c^1_2_2_copy1 + c^1_1_3_copy2 <= 0
 R108: c^1_2_2_copy1 - c^1_1_3_copy1 - c^1_1_3_copy2 <= 0
 R109: - c^1_5 + c^1_2_3_copy1 <= 0
 R110: - c^1_5 + c^1_2_3_copy2 <= 0
 R111: c^1_5 - c^1_2_3_copy1 - c^1_2_3_copy2 <= 0
 R112: d^1_3 - c^1_1_3_copy2 = 0
 R113: d^1_3 - c^1_2_3_copy2 = 0
 R114: e^1_3 - d^1_3 >= 0
 R115: e^1_3 - d^1_3 - c^1_1_2_copy1 = 0
 R116: - RK^0_4 + RK^0_4_copy1 <= 0
 R117: - RK^0_4 + RK^0_4_copy2 <= 0
 R118: RK^0_4 - RK^0_4_copy1 - RK^0_4_copy2 <= 0
 R119: - L^0_4 + L^0_4_copy1 <= 0
 R120: - L^0_4 + L^0_4_copy2 <= 0
 R121: L^0_4 - L^0_4_copy1 - L^0_4_copy2 <= 0
 R122: a^1_4 - RK^0_4_copy2 = 0
 R123: a^1_4 - L^0_4_copy2 = 0
 R124: - b^1_4 + R^0_4_copy2 = 0
 R125: - b^1_4 + c^1_1_3_copy1 >= 0
 R126: - a^1_4 - b^1_4 + c^1_1_3_copy1 = 0
 R127: - c^1_2_3_copy1 + c^1_1_4_copy1 <= 0
 R128: - c^1_2_3_copy1 + c^1_1_4_copy2 <= 0
 R129: c^1_2_3_copy1 - c^1_1_4_copy1 - c^1_1_4_copy2 <= 0
 R130: - c^1_6 + c^1_2_4_copy1 <= 0
 R131: - c^1_6 + c^1_2_4_copy2 <= 0
 R132: c^1_6 - c^1_2_4_copy1 - c^1_2_4_copy2 <= 0
 R133: d^1_4 - c^1_1_4_copy2 = 0
 R134: d^1_4 - c^1_2_4_copy2 = 0
 R135: e^1_4 - d^1_4 >= 0
 R136: e^1_4 - d^1_4 - c^1_1_3_copy1 = 0
 R137: - RK^0_5 + RK^0_5_copy1 <= 0
 R138: - RK^0_5 + RK^0_5_copy2 <= 0
 R139: RK^0_5 - RK^0_5_copy1 - RK^0_5_copy2 <= 0
 R140: - L^0_5 + L^0_5_copy1 <= 0
 R141: - L^0_5 + L^0_5_copy2 <= 0
 R142: L^0_5 - L^0_5_copy1 - L^0_5_copy2 <= 0
 R143: a^1_5 - RK^0_5_copy2 = 0
 R144: a^1_5 - L^0_5_copy2 = 0
 R145: - b^1_5 + R^0_5_copy2 = 0
 R146: - b^1_5 + c^1_1_4_copy1 >= 0
 R147: - a^1_5 - b^1_5 + c^1_1_4_copy1 = 0
 R148: - c^1_2_4_copy1 + c^1_1_5_copy1 <= 0
 R149: - c^1_2_4_copy1 + c^1_1_5_copy2 <= 0
 R150: c^1_2_4_copy1 - c^1_1_5_copy1 - c^1_1_5_copy2 <= 0
 R151: - c^1_7 + c^1_2_5_copy1 <= 0
 R152: - c^1_7 + c^1_2_5_copy2 <= 0
 R153: c^1_7 - c^1_2_5_copy1 - c^1_2_5_copy2 <= 0
 R154: d^1_5 - c^1_1_5_copy2 = 0
 R155: d^1_5 - c^1_2_5_copy2 = 0
 R156: e^1_5 - d^1_5 >= 0
 R157: e^1_5 - d^1_5 - c^1_1_4_copy1 = 0
 R158: - RK^0_6 + RK^0_6_copy1 <= 0
 R159: - RK^0_6 + RK^0_6_copy2 <= 0
 R160: RK^0_6 - RK^0_6_copy1 - RK^0_6_copy2 <= 0
 R161: - L^0_6 + L^0_6_copy1 <= 0
 R162: - L^0_6 + L^0_6_copy2 <= 0
 R163: L^0_6 - L^0_6_copy1 - L^0_6_copy2 <= 0
 R164: a^1_6 - RK^0_6_copy2 = 0
 R165: a^1_6 - L^0_6_copy2 = 0
 R166: - b^1_6 + R^0_6_copy2 = 0
 R167: - b^1_6 + c^1_1_5_copy1 >= 0
 R168: - a^1_6 - b^1_6 + c^1_1_5_copy1 = 0
 R169: - c^1_2_5_copy1 + c^1_1_6_copy1 <= 0
 R170: - c^1_2_5_copy1 + c^1_1_6_copy2 <= 0
 R171: c^1_2_5_copy1 - c^1_1_6_copy1 - c^1_1_6_copy2 <= 0
 R172: - c^1_8 + c^1_2_6_copy1 <= 0
 R173: - c^1_8 + c^1_2_6_copy2 <= 0
 R174: c^1_8 - c^1_2_6_copy1 - c^1_2_6_copy2 <= 0
 R175: d^1_6 - c^1_1_6_copy2 = 0
 R176: d^1_6 - c^1_2_6_copy2 = 0
 R177: e^1_6 - d^1_6 >= 0
 R178: e^1_6 - d^1_6 - c^1_1_5_copy1 = 0
 R179: - RK^0_7 + RK^0_7_copy1 <= 0
 R180: - RK^0_7 + RK^0_7_copy2 <= 0
 R181: RK^0_7 - RK^0_7_copy1 - RK^0_7_copy2 <= 0
 R182: - L^0_7 + L^0_7_copy1 <= 0
 R183: - L^0_7 + L^0_7_copy2 <= 0
 R184: L^0_7 - L^0_7_copy1 - L^0_7_copy2 <= 0
 R185: a^1_7 - RK^0_7_copy2 = 0
 R186: a^1_7 - L^0_7_copy2 = 0
 R187: - b^1_7 + R^0_7_copy2 = 0
 R188: - b^1_7 + c^1_1_6_copy1 >= 0
 R189: - a^1_7 - b^1_7 + c^1_1_6_copy1 = 0
 R190: - c^1_2_6_copy1 + c^1_1_7_copy1 <= 0
 R191: - c^1_2_6_copy1 + c^1_1_7_copy2 <= 0
 R192: c^1_2_6_copy1 - c^1_1_7_copy1 - c^1_1_7_copy2 <= 0
 R193: - c^1_9 + c^1_2_7_copy1 <= 0
 R194: - c^1_9 + c^1_2_7_copy2 <= 0
 R195: c^1_9 - c^1_2_7_copy1 - c^1_2_7_copy2 <= 0
 R196: d^1_7 - c^1_1_7_copy2 = 0
 R197: d^1_7 - c^1_2_7_copy2 = 0
 R198: e^1_7 - d^1_7 >= 0
 R199: e^1_7 - d^1_7 - c^1_1_6_copy1 = 0
 R200: - RK^0_8 + RK^0_8_copy1 <= 0
 R201: - RK^0_8 + RK^0_8_copy2 <= 0
 R202: RK^0_8 - RK^0_8_copy1 - RK^0_8_copy2 <= 0
 R203: - L^0_8 + L^0_8_copy1 <= 0
 R204: - L^0_8 + L^0_8_copy2 <= 0
 R205: L^0_8 - L^0_8_copy1 - L^0_8_copy2 <= 0
 R206: a^1_8 - RK^0_8_copy2 = 0
 R207: a^1_8 - L^0_8_copy2 = 0
 R208: - b^1_8 + R^0_8_copy2 = 0
 R209: - b^1_8 + c^1_1_7_copy1 >= 0
 R210: - a^1_8 - b^1_8 + c^1_1_7_copy1 = 0
 R211: - c^1_2_7_copy1 + c^1_1_8_copy1 <= 0
 R212: - c^1_2_7_copy1 + c^1_1_8_copy2 <= 0
 R213: c^1_2_7_copy1 - c^1_1_8_copy1 - c^1_1_8_copy2 <= 0
 R214: - c^1_10 + c^1_2_8_copy1 <= 0
 R215: - c^1_10 + c^1_2_8_copy2 <= 0
 R216: c^1_10 - c^1_2_8_copy1 - c^1_2_8_copy2 <= 0
 R217: d^1_8 - c^1_1_8_copy2 = 0
 R218: d^1_8 - c^1_2_8_copy2 = 0
 R219: e^1_8 - d^1_8 >= 0
 R220: e^1_8 - d^1_8 - c^1_1_7_copy1 = 0
 R221: - RK^0_9 + RK^0_9_copy1 <= 0
 R222: - RK^0_9 + RK^0_9_copy2 <= 0
 R223: RK^0_9 - RK^0_9_copy1 - RK^0_9_copy2 <= 0
 R224: - L^0_9 + L^0_9_copy1 <= 0
 R225: - L^0_9 + L^0_9_copy2 <= 0
 R226: L^0_9 - L^0_9_copy1 - L^0_9_copy2 <= 0
 R227: a^1_9 - RK^0_9_copy2 = 0
 R228: a^1_9 - L^0_9_copy2 = 0
 R229: - b^1_9 + R^0_9_copy2 = 0
 R230: - b^1_9 + c^1_1_8_copy1 >= 0
 R231: - a^1_9 - b^1_9 + c^1_1_8_copy1 = 0
 R232: - c^1_2_8_copy1 + c^1_1_9_copy1 <= 0
 R233: - c^1_2_8_copy1 + c^1_1_9_copy2 <= 0
 R234: c^1_2_8_copy1 - c^1_1_9_copy1 - c^1_1_9_copy2 <= 0
 R235: - c^1_11 + c^1_2_9_copy1 <= 0
 R236: - c^1_11 + c^1_2_9_copy2 <= 0
 R237: c^1_11 - c^1_2_9_copy1 - c^1_2_9_copy2 <= 0
 R238: d^1_9 - c^1_1_9_copy2 = 0
 R239: d^1_9 - c^1_2_9_copy2 = 0
 R240: e^1_9 - d^1_9 >= 0
 R241: e^1_9 - d^1_9 - c^1_1_8_copy1 = 0
 R242: - RK^0_10 + RK^0_10_copy1 <= 0
 R243: - RK^0_10 + RK^0_10_copy2 <= 0
 R244: RK^0_10 - RK^0_10_copy1 - RK^0_10_copy2 <= 0
 R245: - L^0_10 + L^0_10_copy1 <= 0
 R246: - L^0_10 + L^0_10_copy2 <= 0
 R247: L^0_10 - L^0_10_copy1 - L^0_10_copy2 <= 0
 R248: a^1_10 - RK^0_10_copy2 = 0
 R249: a^1_10 - L^0_10_copy2 = 0
 R250: - b^1_10 + R^0_10_copy2 = 0
 R251: - b^1_10 + c^1_1_9_copy1 >= 0
 R252: - a^1_10 - b^1_10 + c^1_1_9_copy1 = 0
 R253: - c^1_2_9_copy1 + c^1_1_10_copy1 <= 0
 R254: - c^1_2_9_copy1 + c^1_1_10_copy2 <= 0
 R255: c^1_2_9_copy1 - c^1_1_10_copy1 - c^1_1_10_copy2 <= 0
 R256: - c^1_12 + c^1_2_10_copy1 <= 0
 R257: - c^1_12 + c^1_2_10_copy2 <= 0
 R258: c^1_12 - c^1_2_10_copy1 - c^1_2_10_copy2 <= 0
 R259: d^1_10 - c^1_1_10_copy2 = 0
 R260: d^1_10 - c^1_2_10_copy2 = 0
 R261: e^1_10 - d^1_10 >= 0
 R262: e^1_10 - d^1_10 - c^1_1_9_copy1 = 0
 R263: - RK^0_11 + RK^0_11_copy1 <= 0
 R264: - RK^0_11 + RK^0_11_copy2 <= 0
 R265: RK^0_11 - RK^0_11_copy1 - RK^0_11_copy2 <= 0
 R266: - L^0_11 + L^0_11_copy1 <= 0
 R267: - L^0_11 + L^0_11_copy2 <= 0
 R268: L^0_11 - L^0_11_copy1 - L^0_11_copy2 <= 0
 R269: a^1_11 - RK^0_11_copy2 = 0
 R270: a^1_11 - L^0_11_copy2 = 0
 R271: - b^1_11 + R^0_11_copy2 = 0
 R272: - b^1_11 + c^1_1_10_copy1 >= 0
 R273: - a^1_11 - b^1_11 + c^1_1_10_copy1 = 0
 R274: - c^1_2_10_copy1 + c^1_1_11_copy1 <= 0
 R275: - c^1_2_10_copy1 + c^1_1_11_copy2 <= 0
 R276: c^1_2_10_copy1 - c^1_1_11_copy1 - c^1_1_11_copy2 <= 0
 R277: - c^1_13 + c^1_2_11_copy1 <= 0
 R278: - c^1_13 + c^1_2_11_copy2 <= 0
 R279: c^1_13 - c^1_2_11_copy1 - c^1_2_11_copy2 <= 0
 R280: d^1_11 - c^1_1_11_copy2 = 0
 R281: d^1_11 - c^1_2_11_copy2 = 0
 R282: e^1_11 - d^1_11 >= 0
 R283: e^1_11 - d^1_11 - c^1_1_10_copy1 = 0
 R284: - RK^0_12 + RK^0_12_copy1 <= 0
 R285: - RK^0_12 + RK^0_12_copy2 <= 0
 R286: RK^0_12 - RK^0_12_copy1 - RK^0_12_copy2 <= 0
 R287: - L^0_12 + L^0_12_copy1 <= 0
 R288: - L^0_12 + L^0_12_copy2 <= 0
 R289: L^0_12 - L^0_12_copy1 - L^0_12_copy2 <= 0
 R290: a^1_12 - RK^0_12_copy2 = 0
 R291: a^1_12 - L^0_12_copy2 = 0
 R292: - b^1_12 + R^0_12_copy2 = 0
 R293: - b^1_12 + c^1_1_11_copy1 >= 0
 R294: - a^1_12 - b^1_12 + c^1_1_11_copy1 = 0
 R295: - c^1_2_11_copy1 + c^1_1_12_copy1 <= 0
 R296: - c^1_2_11_copy1 + c^1_1_12_copy2 <= 0
 R297: c^1_2_11_copy1 - c^1_1_12_copy1 - c^1_1_12_copy2 <= 0
 R298: - c^1_14 + c^1_2_12_copy1 <= 0
 R299: - c^1_14 + c^1_2_12_copy2 <= 0
 R300: c^1_14 - c^1_2_12_copy1 - c^1_2_12_copy2 <= 0
 R301: d^1_12 - c^1_1_12_copy2 = 0
 R302: d^1_12 - c^1_2_12_copy2 = 0
 R303: e^1_12 - d^1_12 >= 0
 R304: e^1_12 - d^1_12 - c^1_1_11_copy1 = 0
 R305: - RK^0_13 + RK^0_13_copy1 <= 0
 R306: - RK^0_13 + RK^0_13_copy2 <= 0
 R307: RK^0_13 - RK^0_13_copy1 - RK^0_13_copy2 <= 0
 R308: - L^0_13 + L^0_13_copy1 <= 0
 R309: - L^0_13 + L^0_13_copy2 <= 0
 R310: L^0_13 - L^0_13_copy1 - L^0_13_copy2 <= 0
 R311: a^1_13 - RK^0_13_copy2 = 0
 R312: a^1_13 - L^0_13_copy2 = 0
 R313: - b^1_13 + R^0_13_copy2 = 0
 R314: - b^1_13 + c^1_1_12_copy1 >= 0
 R315: - a^1_13 - b^1_13 + c^1_1_12_copy1 = 0
 R316: - c^1_2_12_copy1 + c^1_1_13_copy1 <= 0
 R317: - c^1_2_12_copy1 + c^1_1_13_copy2 <= 0
 R318: c^1_2_12_copy1 - c^1_1_13_copy1 - c^1_1_13_copy2 <= 0
 R319: - c^1_15 + c^1_2_13_copy1 <= 0
 R320: - c^1_15 + c^1_2_13_copy2 <= 0
 R321: c^1_15 - c^1_2_13_copy1 - c^1_2_13_copy2 <= 0
 R322: d^1_13 - c^1_1_13_copy2 = 0
 R323: d^1_13 - c^1_2_13_copy2 = 0
 R324: e^1_13 - d^1_13 >= 0
 R325: e^1_13 - d^1_13 - c^1_1_12_copy1 = 0
 R326: - RK^0_14 + RK^0_14_copy1 <= 0
 R327: - RK^0_14 + RK^0_14_copy2 <= 0
 R328: RK^0_14 - RK^0_14_copy1 - RK^0_14_copy2 <= 0
 R329: - L^0_14 + L^0_14_copy1 <= 0
 R330: - L^0_14 + L^0_14_copy2 <= 0
 R331: L^0_14 - L^0_14_copy1 - L^0_14_copy2 <= 0
 R332: a^1_14 - RK^0_14_copy2 = 0
 R333: a^1_14 - L^0_14_copy2 = 0
 R334: - b^1_14 + R^0_14_copy2 = 0
 R335: - b^1_14 + c^1_1_13_copy1 >= 0
 R336: - a^1_14 - b^1_14 + c^1_1_13_copy1 = 0
 R337: e^1_14 - c^1_1_13_copy1 = 0
 R338: - RK^0_15 + RK^0_15_copy1 <= 0
 R339: - RK^0_15 + RK^0_15_copy2 <= 0
 R340: RK^0_15 - RK^0_15_copy1 - RK^0_15_copy2 <= 0
 R341: - L^0_15 + L^0_15_copy1 <= 0
 R342: - L^0_15 + L^0_15_copy2 <= 0
 R343: L^0_15 - L^0_15_copy1 - L^0_15_copy2 <= 0
 R344: a^1_15 - RK^0_15_copy2 = 0
 R345: a^1_15 - L^0_15_copy2 = 0
 R346: - b^1_15 + R^0_15_copy2 = 0
 R347: - b^1_15 + c^1_2_13_copy1 >= 0
 R348: - a^1_15 - b^1_15 + c^1_2_13_copy1 = 0
 R349: e^1_15 - c^1_2_13_copy1 = 0
 R350: - e^1_3 + e^1_3_0_copy1 <= 0
 R351: - e^1_3 + e^1_3_0_copy2 <= 0
 R352: e^1_3 - e^1_3_0_copy1 - e^1_3_0_copy2 <= 0
 R353: - e^1_9 + e^1_9_0_copy1 <= 0
 R354: - e^1_9 + e^1_9_0_copy2 <= 0
 R355: e^1_9 - e^1_9_0_copy1 - e^1_9_0_copy2 <= 0
 R356: - e^1_14 + e^1_14_0_copy1 <= 0
 R357: - e^1_14 + e^1_14_0_copy2 <= 0
 R358: e^1_14 - e^1_14_0_copy1 - e^1_14_0_copy2 <= 0
 R359: f^1_0 - e^1_3_0_copy2 - e^1_9_0_copy2 - e^1_14_0_copy2 = 0
 R360: f^1_0 - e^1_3_0_copy2 - e^1_9_0_copy2 >= 0
 R361: - e^1_4 + e^1_3_1_copy1 <= 0
 R362: - e^1_4 + e^1_3_1_copy2 <= 0
 R363: e^1_4 - e^1_3_1_copy1 - e^1_3_1_copy2 <= 0
 R364: - e^1_10 + e^1_9_1_copy1 <= 0
 R365: - e^1_10 + e^1_9_1_copy2 <= 0
 R366: e^1_10 - e^1_9_1_copy1 - e^1_9_1_copy2 <= 0
 R367: - e^1_15 + e^1_14_1_copy1 <= 0
 R368: - e^1_15 + e^1_14_1_copy2 <= 0
 R369: e^1_15 - e^1_14_1_copy1 - e^1_14_1_copy2 <= 0
 R370: f^1_1 - e^1_3_1_copy2 - e^1_9_1_copy2 - e^1_14_1_copy2 = 0
 R371: f^1_1 - e^1_3_1_copy2 - e^1_9_1_copy2 >= 0
 R372: - e^1_5 + e^1_3_2_copy1 <= 0
 R373: - e^1_5 + e^1_3_2_copy2 <= 0
 R374: e^1_5 - e^1_3_2_copy1 - e^1_3_2_copy2 <= 0
 R375: - e^1_11 + e^1_9_2_copy1 <= 0
 R376: - e^1_11 + e^1_9_2_copy2 <= 0
 R377: e^1_11 - e^1_9_2_copy1 - e^1_9_2_copy2 <= 0
 R378: - e^1_0 + e^1_14_2_copy1 <= 0
 R379: - e^1_0 + e^1_14_2_copy2 <= 0
 R380: e^1_0 - e^1_14_2_copy1 - e^1_14_2_copy2 <= 0
 R381: f^1_2 - e^1_3_2_copy2 - e^1_9_2_copy2 - e^1_14_2_copy2 = 0
 R382: f^1_2 - e^1_3_2_copy2 - e^1_9_2_copy2 >= 0
 R383: - e^1_6 + e^1_3_3_copy1 <= 0
 R384: - e^1_6 + e^1_3_3_copy2 <= 0
 R385: e^1_6 - e^1_3_3_copy1 - e^1_3_3_copy2 <= 0
 R386: - e^1_12 + e^1_9_3_copy1 <= 0
 R387: - e^1_12 + e^1_9_3_copy2 <= 0
 R388: e^1_12 - e^1_9_3_copy1 - e^1_9_3_copy2 <= 0
 R389: - e^1_1 + e^1_14_3_copy1 <= 0
 R390: - e^1_1 + e^1_14_3_copy2 <= 0
 R391: e^1_1 - e^1_14_3_copy1 - e^1_14_3_copy2 <= 0
 R392: f^1_3 - e^1_3_3_copy2 - e^1_9_3_copy2 - e^1_14_3_copy2 = 0
 R393: f^1_3 - e^1_3_3_copy2 - e^1_9_3_copy2 >= 0
 R394: - e^1_7 + e^1_3_4_copy1 <= 0
 R395: - e^1_7 + e^1_3_4_copy2 <= 0
 R396: e^1_7 - e^1_3_4_copy1 - e^1_3_4_copy2 <= 0
 R397: - e^1_13 + e^1_9_4_copy1 <= 0
 R398: - e^1_13 + e^1_9_4_copy2 <= 0
 R399: e^1_13 - e^1_9_4_copy1 - e^1_9_4_copy2 <= 0
 R400: - e^1_2 + e^1_14_4_copy1 <= 0
 R401: - e^1_2 + e^1_14_4_copy2 <= 0
 R402: e^1_2 - e^1_14_4_copy1 - e^1_14_4_copy2 <= 0
 R403: f^1_4 - e^1_3_4_copy2 - e^1_9_4_copy2 - e^1_14_4_copy2 = 0
 R404: f^1_4 - e^1_3_4_copy2 - e^1_9_4_copy2 >= 0
 R405: - e^1_8 + e^1_3_5_copy1 <= 0
 R406: - e^1_8 + e^1_3_5_copy2 <= 0
 R407: e^1_8 - e^1_3_5_copy1 - e^1_3_5_copy2 <= 0
 R408: - e^1_14_0_copy1 + e^1_9_5_copy1 <= 0
 R409: - e^1_14_0_copy1 + e^1_9_5_copy2 <= 0
 R410: e^1_14_0_copy1 - e^1_9_5_copy1 - e^1_9_5_copy2 <= 0
 R411: - e^1_3_0_copy1 + e^1_14_5_copy1 <= 0
 R412: - e^1_3_0_copy1 + e^1_14_5_copy2 <= 0
 R413: e^1_3_0_copy1 - e^1_14_5_copy1 - e^1_14_5_copy2 <= 0
 R414: f^1_5 - e^1_3_5_copy2 - e^1_9_5_copy2 - e^1_14_5_copy2 = 0
 R415: f^1_5 - e^1_3_5_copy2 - e^1_9_5_copy2 >= 0
 R416: - e^1_9_0_copy1 + e^1_3_6_copy1 <= 0
 R417: - e^1_9_0_copy1 + e^1_3_6_copy2 <= 0
 R418: e^1_9_0_copy1 - e^1_3_6_copy1 - e^1_3_6_copy2 <= 0
 R419: - e^1_14_1_copy1 + e^1_9_6_copy1 <= 0
 R420: - e^1_14_1_copy1 + e^1_9_6_copy2 <= 0
 R421: e^1_14_1_copy1 - e^1_9_6_copy1 - e^1_9_6_copy2 <= 0
 R422: - e^1_3_1_copy1 + e^1_14_6_copy1 <= 0
 R423: - e^1_3_1_copy1 + e^1_14_6_copy2 <= 0
 R424: e^1_3_1_copy1 - e^1_14_6_copy1 - e^1_14_6_copy2 <= 0
 R425: f^1_6 - e^1_3_6_copy2 - e^1_9_6_copy2 - e^1_14_6_copy2 = 0
 R426: f^1_6 - e^1_3_6_copy2 - e^1_9_6_copy2 >= 0
 R427: - e^1_9_1_copy1 + e^1_3_7_copy1 <= 0
 R428: - e^1_9_1_copy1 + e^1_3_7_copy2 <= 0
 R429: e^1_9_1_copy1 - e^1_3_7_copy1 - e^1_3_7_copy2 <= 0
 R430: - e^1_14_2_copy1 + e^1_9_7_copy1 <= 0
 R431: - e^1_14_2_copy1 + e^1_9_7_copy2 <= 0
 R432: e^1_14_2_copy1 - e^1_9_7_copy1 - e^1_9_7_copy2 <= 0
 R433: - e^1_3_2_copy1 + e^1_14_7_copy1 <= 0
 R434: - e^1_3_2_copy1 + e^1_14_7_copy2 <= 0
 R435: e^1_3_2_copy1 - e^1_14_7_copy1 - e^1_14_7_copy2 <= 0
 R436: f^1_7 - e^1_3_7_copy2 - e^1_9_7_copy2 - e^1_14_7_copy2 = 0
 R437: f^1_7 - e^1_3_7_copy2 - e^1_9_7_copy2 >= 0
 R438: - e^1_9_2_copy1 + e^1_3_8_copy1 <= 0
 R439: - e^1_9_2_copy1 + e^1_3_8_copy2 <= 0
 R440: e^1_9_2_copy1 - e^1_3_8_copy1 - e^1_3_8_copy2 <= 0
 R441: - e^1_14_3_copy1 + e^1_9_8_copy1 <= 0
 R442: - e^1_14_3_copy1 + e^1_9_8_copy2 <= 0
 R443: e^1_14_3_copy1 - e^1_9_8_copy1 - e^1_9_8_copy2 <= 0
 R444: - e^1_3_3_copy1 + e^1_14_8_copy1 <= 0
 R445: - e^1_3_3_copy1 + e^1_14_8_copy2 <= 0
 R446: e^1_3_3_copy1 - e^1_14_8_copy1 - e^1_14_8_copy2 <= 0
 R447: f^1_8 - e^1_3_8_copy2 - e^1_9_8_copy2 - e^1_14_8_copy2 = 0
 R448: f^1_8 - e^1_3_8_copy2 - e^1_9_8_copy2 >= 0
 R449: - e^1_9_3_copy1 + e^1_3_9_copy1 <= 0
 R450: - e^1_9_3_copy1 + e^1_3_9_copy2 <= 0
 R451: e^1_9_3_copy1 - e^1_3_9_copy1 - e^1_3_9_copy2 <= 0
 R452: - e^1_14_4_copy1 + e^1_9_9_copy1 <= 0
 R453: - e^1_14_4_copy1 + e^1_9_9_copy2 <= 0
 R454: e^1_14_4_copy1 - e^1_9_9_copy1 - e^1_9_9_copy2 <= 0
 R455: - e^1_3_4_copy1 + e^1_14_9_copy1 <= 0
 R456: - e^1_3_4_copy1 + e^1_14_9_copy2 <= 0
 R457: e^1_3_4_copy1 - e^1_14_9_copy1 - e^1_14_9_copy2 <= 0
 R458: f^1_9 - e^1_3_9_copy2 - e^1_9_9_copy2 - e^1_14_9_copy2 = 0
 R459: f^1_9 - e^1_3_9_copy2 - e^1_9_9_copy2 >= 0
 R460: - e^1_9_4_copy1 + e^1_3_10_copy1 <= 0
 R461: - e^1_9_4_copy1 + e^1_3_10_copy2 <= 0
 R462: e^1_9_4_copy1 - e^1_3_10_copy1 - e^1_3_10_copy2 <= 0
 R463: - e^1_14_5_copy1 + e^1_9_10_copy1 <= 0
 R464: - e^1_14_5_copy1 + e^1_9_10_copy2 <= 0
 R465: e^1_14_5_copy1 - e^1_9_10_copy1 - e^1_9_10_copy2 <= 0
 R466: - e^1_3_5_copy1 + e^1_14_10_copy1 <= 0
 R467: - e^1_3_5_copy1 + e^1_14_10_copy2 <= 0
 R468: e^1_3_5_copy1 - e^1_14_10_copy1 - e^1_14_10_copy2 <= 0
 R469: f^1_10 - e^1_3_10_copy2 - e^1_9_10_copy2 - e^1_14_10_copy2 = 0
 R470: f^1_10 - e^1_3_10_copy2 - e^1_9_10_copy2 >= 0
 R471: - e^1_9_5_copy1 + e^1_3_11_copy1 <= 0
 R472: - e^1_9_5_copy1 + e^1_3_11_copy2 <= 0
 R473: e^1_9_5_copy1 - e^1_3_11_copy1 - e^1_3_11_copy2 <= 0
 R474: - e^1_14_6_copy1 + e^1_9_11_copy1 <= 0
 R475: - e^1_14_6_copy1 + e^1_9_11_copy2 <= 0
 R476: e^1_14_6_copy1 - e^1_9_11_copy1 - e^1_9_11_copy2 <= 0
 R477: - e^1_3_6_copy1 + e^1_14_11_copy1 <= 0
 R478: - e^1_3_6_copy1 + e^1_14_11_copy2 <= 0
 R479: e^1_3_6_copy1 - e^1_14_11_copy1 - e^1_14_11_copy2 <= 0
 R480: f^1_11 - e^1_3_11_copy2 - e^1_9_11_copy2 - e^1_14_11_copy2 = 0
 R481: f^1_11 - e^1_3_11_copy2 - e^1_9_11_copy2 >= 0
 R482: - e^1_9_6_copy1 + e^1_3_12_copy1 <= 0
 R483: - e^1_9_6_copy1 + e^1_3_12_copy2 <= 0
 R484: e^1_9_6_copy1 - e^1_3_12_copy1 - e^1_3_12_copy2 <= 0
 R485: - e^1_14_7_copy1 + e^1_9_12_copy1 <= 0
 R486: - e^1_14_7_copy1 + e^1_9_12_copy2 <= 0
 R487: e^1_14_7_copy1 - e^1_9_12_copy1 - e^1_9_12_copy2 <= 0
 R488: - e^1_3_7_copy1 + e^1_14_12_copy1 <= 0
 R489: - e^1_3_7_copy1 + e^1_14_12_copy2 <= 0
 R490: e^1_3_7_copy1 - e^1_14_12_copy1 - e^1_14_12_copy2 <= 0
 R491: f^1_12 - e^1_3_12_copy2 - e^1_9_12_copy2 - e^1_14_12_copy2 = 0
 R492: f^1_12 - e^1_3_12_copy2 - e^1_9_12_copy2 >= 0
 R493: - e^1_9_7_copy1 + e^1_3_13_copy1 <= 0
 R494: - e^1_9_7_copy1 + e^1_3_13_copy2 <= 0
 R495: e^1_9_7_copy1 - e^1_3_13_copy1 - e^1_3_13_copy2 <= 0
 R496: - e^1_14_8_copy1 + e^1_9_13_copy1 <= 0
 R497: - e^1_14_8_copy1 + e^1_9_13_copy2 <= 0
 R498: e^1_14_8_copy1 - e^1_9_13_copy1 - e^1_9_13_copy2 <= 0
 R499: - e^1_3_8_copy1 + e^1_14_13_copy1 <= 0
 R500: - e^1_3_8_copy1 + e^1_14_13_copy2 <= 0
 R501: e^1_3_8_copy1 - e^1_14_13_copy1 - e^1_14_13_copy2 <= 0
 R502: f^1_13 - e^1_3_13_copy2 - e^1_9_13_copy2 - e^1_14_13_copy2 = 0
 R503: f^1_13 - e^1_3_13_copy2 - e^1_9_13_copy2 >= 0
 R504: - e^1_9_8_copy1 + e^1_3_14_copy1 <= 0
 R505: - e^1_9_8_copy1 + e^1_3_14_copy2 <= 0
 R506: e^1_9_8_copy1 - e^1_3_14_copy1 - e^1_3_14_copy2 <= 0
 R507: - e^1_14_9_copy1 + e^1_9_14_copy1 <= 0
 R508: - e^1_14_9_copy1 + e^1_9_14_copy2 <= 0
 R509: e^1_14_9_copy1 - e^1_9_14_copy1 - e^1_9_14_copy2 <= 0
 R510: - e^1_3_9_copy1 + e^1_14_14_copy1 <= 0
 R511: - e^1_3_9_copy1 + e^1_14_14_copy2 <= 0
 R512: e^1_3_9_copy1 - e^1_14_14_copy1 - e^1_14_14_copy2 <= 0
 R513: f^1_14 - e^1_3_14_copy2 - e^1_9_14_copy2 - e^1_14_14_copy2 = 0
 R514: f^1_14 - e^1_3_14_copy2 - e^1_9_14_copy2 >= 0
 R515: - e^1_9_9_copy1 + e^1_3_15_copy1 <= 0
 R516: - e^1_9_9_copy1 + e^1_3_15_copy2 <= 0
 R517: e^1_9_9_copy1 - e^1_3_15_copy1 - e^1_3_15_copy2 <= 0
 R518: - e^1_14_10_copy1 + e^1_9_15_copy1 <= 0
 R519: - e^1_14_10_copy1 + e^1_9_15_copy2 <= 0
 R520: e^1_14_10_copy1 - e^1_9_15_copy1 - e^1_9_15_copy2 <= 0
 R521: - e^1_3_10_copy1 + e^1_14_15_copy1 <= 0
 R522: - e^1_3_10_copy1 + e^1_14_15_copy2 <= 0
 R523: e^1_3_10_copy1 - e^1_14_15_copy1 - e^1_14_15_copy2 <= 0
 R524: f^1_15 - e^1_3_15_copy2 - e^1_9_15_copy2 - e^1_14_15_copy2 = 0
 R525: f^1_15 - e^1_3_15_copy2 - e^1_9_15_copy2 >= 0
 R526: - f^1_0 + f^1_0_copy1 <= 0
 R527: - f^1_0 + f^1_0_copy2 <= 0
 R528: f^1_0 - f^1_0_copy1 - f^1_0_copy2 <= 0
 R529: g^1_0 - f^1_0_copy2 = 0
 R530: g^1_0 - RK^0_0_copy1 = 0
 R531: L^1_0 - R^0_0_copy1 >= 0
 R532: - g^1_0 + L^1_0 - R^0_0_copy1 = 0
 R533: R^1_0 - L^0_0_copy1 >= 0
 R534: R^1_0 - L^0_0_copy1 - f^1_0_copy1 = 0
 R535: - f^1_1 + f^1_1_copy1 <= 0
 R536: - f^1_1 + f^1_1_copy2 <= 0
 R537: f^1_1 - f^1_1_copy1 - f^1_1_copy2 <= 0
 R538: g^1_1 - f^1_1_copy2 = 0
 R539: g^1_1 - RK^0_1_copy1 = 0
 R540: L^1_1 - R^0_1_copy1 >= 0
 R541: - g^1_1 + L^1_1 - R^0_1_copy1 = 0
 R542: R^1_1 - L^0_1_copy1 >= 0
 R543: R^1_1 - L^0_1_copy1 - f^1_1_copy1 = 0
 R544: - f^1_2 + f^1_2_copy1 <= 0
 R545: - f^1_2 + f^1_2_copy2 <= 0
 R546: f^1_2 - f^1_2_copy1 - f^1_2_copy2 <= 0
 R547: g^1_2 - f^1_2_copy2 = 0
 R548: g^1_2 - RK^0_2_copy1 = 0
 R549: L^1_2 - R^0_2_copy1 >= 0
 R550: - g^1_2 + L^1_2 - R^0_2_copy1 = 0
 R551: R^1_2 - L^0_2_copy1 >= 0
 R552: R^1_2 - L^0_2_copy1 - f^1_2_copy1 = 0
 R553: - f^1_3 + f^1_3_copy1 <= 0
 R554: - f^1_3 + f^1_3_copy2 <= 0
 R555: f^1_3 - f^1_3_copy1 - f^1_3_copy2 <= 0
 R556: g^1_3 - f^1_3_copy2 = 0
 R557: g^1_3 - RK^0_3_copy1 = 0
 R558: L^1_3 - R^0_3_copy1 >= 0
 R559: - g^1_3 + L^1_3 - R^0_3_copy1 = 0
 R560: R^1_3 - L^0_3_copy1 >= 0
 R561: R^1_3 - L^0_3_copy1 - f^1_3_copy1 = 0
 R562: - f^1_4 + f^1_4_copy1 <= 0
 R563: - f^1_4 + f^1_4_copy2 <= 0
 R564: f^1_4 - f^1_4_copy1 - f^1_4_copy2 <= 0
 R565: g^1_4 - f^1_4_copy2 = 0
 R566: g^1_4 - RK^0_4_copy1 = 0
 R567: L^1_4 - R^0_4_copy1 >= 0
 R568: - g^1_4 + L^1_4 - R^0_4_copy1 = 0
 R569: R^1_4 - L^0_4_copy1 >= 0
 R570: R^1_4 - L^0_4_copy1 - f^1_4_copy1 = 0
 R571: - f^1_5 + f^1_5_copy1 <= 0
 R572: - f^1_5 + f^1_5_copy2 <= 0
 R573: f^1_5 - f^1_5_copy1 - f^1_5_copy2 <= 0
 R574: g^1_5 - f^1_5_copy2 = 0
 R575: g^1_5 - RK^0_5_copy1 = 0
 R576: L^1_5 - R^0_5_copy1 >= 0
 R577: - g^1_5 + L^1_5 - R^0_5_copy1 = 0
 R578: R^1_5 - L^0_5_copy1 >= 0
 R579: R^1_5 - L^0_5_copy1 - f^1_5_copy1 = 0
 R580: - f^1_6 + f^1_6_copy1 <= 0
 R581: - f^1_6 + f^1_6_copy2 <= 0
 R582: f^1_6 - f^1_6_copy1 - f^1_6_copy2 <= 0
 R583: g^1_6 - f^1_6_copy2 = 0
 R584: g^1_6 - RK^0_6_copy1 = 0
 R585: L^1_6 - R^0_6_copy1 >= 0
 R586: - g^1_6 + L^1_6 - R^0_6_copy1 = 0
 R587: R^1_6 - L^0_6_copy1 >= 0
 R588: R^1_6 - L^0_6_copy1 - f^1_6_copy1 = 0
 R589: - f^1_7 + f^1_7_copy1 <= 0
 R590: - f^1_7 + f^1_7_copy2 <= 0
 R591: f^1_7 - f^1_7_copy1 - f^1_7_copy2 <= 0
 R592: g^1_7 - f^1_7_copy2 = 0
 R593: g^1_7 - RK^0_7_copy1 = 0
 R594: L^1_7 - R^0_7_copy1 >= 0
 R595: - g^1_7 + L^1_7 - R^0_7_copy1 = 0
 R596: R^1_7 - L^0_7_copy1 >= 0
 R597: R^1_7 - L^0_7_copy1 - f^1_7_copy1 = 0
 R598: - f^1_8 + f^1_8_copy1 <= 0
 R599: - f^1_8 + f^1_8_copy2 <= 0
 R600: f^1_8 - f^1_8_copy1 - f^1_8_copy2 <= 0
 R601: g^1_8 - f^1_8_copy2 = 0
 R602: g^1_8 - RK^0_8_copy1 = 0
 R603: L^1_8 - R^0_8_copy1 >= 0
 R604: - g^1_8 + L^1_8 - R^0_8_copy1 = 0
 R605: R^1_8 - L^0_8_copy1 >= 0
 R606: R^1_8 - L^0_8_copy1 - f^1_8_copy1 = 0
 R607: - f^1_9 + f^1_9_copy1 <= 0
 R608: - f^1_9 + f^1_9_copy2 <= 0
 R609: f^1_9 - f^1_9_copy1 - f^1_9_copy2 <= 0
 R610: g^1_9 - f^1_9_copy2 = 0
 R611: g^1_9 - RK^0_9_copy1 = 0
 R612: L^1_9 - R^0_9_copy1 >= 0
 R613: - g^1_9 + L^1_9 - R^0_9_copy1 = 0
 R614: R^1_9 - L^0_9_copy1 >= 0
 R615: R^1_9 - L^0_9_copy1 - f^1_9_copy1 = 0
 R616: - f^1_10 + f^1_10_copy1 <= 0
 R617: - f^1_10 + f^1_10_copy2 <= 0
 R618: f^1_10 - f^1_10_copy1 - f^1_10_copy2 <= 0
 R619: g^1_10 - f^1_10_copy2 = 0
 R620: g^1_10 - RK^0_10_copy1 = 0
 R621: L^1_10 - R^0_10_copy1 >= 0
 R622: - g^1_10 + L^1_10 - R^0_10_copy1 = 0
 R623: R^1_10 - L^0_10_copy1 >= 0
 R624: R^1_10 - L^0_10_copy1 - f^1_10_copy1 = 0
 R625: - f^1_11 + f^1_11_copy1 <= 0
 R626: - f^1_11 + f^1_11_copy2 <= 0
 R627: f^1_11 - f^1_11_copy1 - f^1_11_copy2 <= 0
 R628: g^1_11 - f^1_11_copy2 = 0
 R629: g^1_11 - RK^0_11_copy1 = 0
 R630: L^1_11 - R^0_11_copy1 >= 0
 R631: - g^1_11 + L^1_11 - R^0_11_copy1 = 0
 R632: R^1_11 - L^0_11_copy1 >= 0
 R633: R^1_11 - L^0_11_copy1 - f^1_11_copy1 = 0
 R634: - f^1_12 + f^1_12_copy1 <= 0
 R635: - f^1_12 + f^1_12_copy2 <= 0
 R636: f^1_12 - f^1_12_copy1 - f^1_12_copy2 <= 0
 R637: g^1_12 - f^1_12_copy2 = 0
 R638: g^1_12 - RK^0_12_copy1 = 0
 R639: L^1_12 - R^0_12_copy1 >= 0
 R640: - g^1_12 + L^1_12 - R^0_12_copy1 = 0
 R641: R^1_12 - L^0_12_copy1 >= 0
 R642: R^1_12 - L^0_12_copy1 - f^1_12_copy1 = 0
 R643: - f^1_13 + f^1_13_copy1 <= 0
 R644: - f^1_13 + f^1_13_copy2 <= 0
 R645: f^1_13 - f^1_13_copy1 - f^1_13_copy2 <= 0
 R646: g^1_13 - f^1_13_copy2 = 0
 R647: g^1_13 - RK^0_13_copy1 = 0
 R648: L^1_13 - R^0_13_copy1 >= 0
 R649: - g^1_13 + L^1_13 - R^0_13_copy1 = 0
 R650: R^1_13 - L^0_13_copy1 >= 0
 R651: R^1_13 - L^0_13_copy1 - f^1_13_copy1 = 0
 R652: - f^1_14 + f^1_14_copy1 <= 0
 R653: - f^1_14 + f^1_14_copy2 <= 0
 R654: f^1_14 - f^1_14_copy1 - f^1_14_copy2 <= 0
 R655: g^1_14 - f^1_14_copy2 = 0
 R656: g^1_14 - RK^0_14_copy1 = 0
 R657: L^1_14 - R^0_14_copy1 >= 0
 R658: - g^1_14 + L^1_14 - R^0_14_copy1 = 0
 R659: R^1_14 - L^0_14_copy1 >= 0
 R660: R^1_14 - L^0_14_copy1 - f^1_14_copy1 = 0
 R661: - f^1_15 + f^1_15_copy1 <= 0
 R662: - f^1_15 + f^1_15_copy2 <= 0
 R663: f^1_15 - f^1_15_copy1 - f^1_15_copy2 <= 0
 R664: g^1_15 - f^1_15_copy2 = 0
 R665: g^1_15 - RK^0_15_copy1 = 0
 R666: L^1_15 - R^0_15_copy1 >= 0
 R667: - g^1_15 + L^1_15 - R^0_15_copy1 = 0
 R668: R^1_15 - L^0_15_copy1 >= 0
 R669: R^1_15 - L^0_15_copy1 - f^1_15_copy1 = 0
 R670: K_16 = 0
 R671: flag_16 = 0
 R672: K_17 = 0
 R673: flag_17 = 0
 R674: K_18 = 0
 R675: flag_18 = 0
 R676: K_19 = 0
 R677: flag_19 = 0
 R678: K_20 = 0
 R679: flag_20 = 0
 R680: K_21 = 0
 R681: flag_21 = 0
 R682: K_22 = 0
 R683: flag_22 = 0
 R684: K_23 = 0
 R685: flag_23 = 0
 R686: K_24 = 0
 R687: flag_24 = 0
 R688: K_25 = 0
 R689: flag_25 = 0
 R690: K_26 = 0
 R691: flag_26 = 0
 R692: K_27 = 0
 R693: flag_27 = 0
 R694: K_28 = 0
 R695: flag_28 = 0
 R696: K_29 = 0
 R697: flag_29 = 0
 R698: K_30 = 0
 R699: flag_30 = 0
 R700: K_31 = 0
 R701: flag_31 = 0
 R702: K_32 = 0
 R703: flag_32 = 0
 R704: K_33 = 0
 R705: flag_33 = 0
 R706: K_34 = 0
 R707: flag_34 = 0
 R708: K_35 = 0
 R709: flag_35 = 0
 R710: K_36 = 0
 R711: flag_36 = 0
 R712: K_37 = 0
 R713: flag_37 = 0
 R714: K_38 = 0
 R715: flag_38 = 0
 R716: K_39 = 0
 R717: flag_39 = 0
 R718: K_40 = 0
 R719: flag_40 = 0
 R720: K_41 = 0
 R721: flag_41 = 0
 R722: K_42 = 0
 R723: flag_42 = 0
 R724: K_43 = 0
 R725: flag_43 = 0
 R726: K_44 = 0
 R727: flag_44 = 0
 R728: K_45 = 0
 R729: flag_45 = 0
 R730: K_46 = 0
 R731: flag_46 = 0
 R732: K_47 = 0
 R733: flag_47 = 0
 R734: K_48 = 0
 R735: flag_48 = 0
 R736: K_49 = 0
 R737: flag_49 = 0
 R738: K_50 = 0
 R739: flag_50 = 0
 R740: K_51 = 0
 R741: flag_51 = 0
 R742: K_52 = 0
 R743: flag_52 = 0
 R744: K_53 = 0
 R745: flag_53 = 0
 R746: K_54 = 0
 R747: flag_54 = 0
 R748: K_55 = 0
 R749: flag_55 = 0
 R750: K_56 = 0
 R751: flag_56 = 0
 R752: K_57 = 0
 R753: flag_57 = 0
 R754: K_58 = 0
 R755: flag_58 = 0
 R756: K_59 = 0
 R757: flag_59 = 0
 R758: K_60 = 0
 R759: flag_60 = 0
 R760: K_61 = 0
 R761: flag_61 = 0
 R762: K_62 = 0
 R763: flag_62 = 0
 R764: K_63 = 0
 R765: flag_63 = 0
 R766: L^0_0 = 0
 R767: L^0_1 = 0
 R768: L^0_2 = 0
 R769: L^0_3 = 0
 R770: L^0_4 = 1
 R771: L^0_5 = 1
 R772: L^0_6 = 0
 R773: L^0_7 = 0
 R774: L^0_8 = 0
 R775: L^0_9 = 0
 R776: L^0_10 = 0
 R777: L^0_11 = 0
 R778: L^0_12 = 0
 R779: L^0_13 = 0
 R780: L^0_14 = 0
 R781: L^0_15 = 0
 R782: R^0_0 = 0
 R783: R^0_1 = 0
 R784: R^0_2 = 0
 R785: R^0_3 = 0
 R786: R^0_4 = 0
 R787: R^0_5 = 0
 R788: R^0_6 = 0
 R789: R^0_7 = 0
 R790: R^0_8 = 0
 R791: R^0_9 = 0
 R792: R^0_10 = 0
 R793: R^0_11 = 0
 R794: R^0_12 = 0
 R795: R^0_13 = 0
 R796: R^0_14 = 0
 R797: R^0_15 = 0
 R798: L^1_0 = 0
 R799: R^1_0 = 1
 R800: L^1_1 = 0
 R801: R^1_1 = 0
 R802: L^1_2 = 0
 R803: R^1_2 = 0
 R804: L^1_3 = 0
 R805: R^1_3 = 0
 R806: L^1_4 = 0
 R807: R^1_4 = 0
 R808: L^1_5 = 0
 R809: R^1_5 = 0
 R810: L^1_6 = 0
 R811: R^1_6 = 0
 R812: L^1_7 = 0
 R813: R^1_7 = 0
 R814: L^1_8 = 0
 R815: R^1_8 = 0
 R816: L^1_9 = 0
 R817: R^1_9 = 0
 R818: L^1_10 = 0
 R819: R^1_10 = 0
 R820: L^1_11 = 0
 R821: R^1_11 = 0
 R822: L^1_12 = 0
 R823: R^1_12 = 0
 R824: L^1_13 = 0
 R825: R^1_13 = 0
 R826: L^1_14 = 0
 R827: R^1_14 = 0
 R828: L^1_15 = 0
 R829: R^1_15 = 0
Bounds
 flag_0 <= 2
 flag_1 <= 2
 flag_2 <= 2
 flag_3 <= 2
 flag_4 <= 2
 flag_5 <= 2
 flag_6 <= 2
 flag_7 <= 2
 flag_8 <= 2
 flag_9 <= 2
 flag_10 <= 2
 flag_11 <= 2
 flag_12 <= 2
 flag_13 <= 2
 flag_14 <= 2
 flag_15 <= 2
 flag_16 <= 2
 flag_17 <= 2
 flag_18 <= 2
 flag_19 <= 2
 flag_20 <= 2
 flag_21 <= 2
 flag_22 <= 2
 flag_23 <= 2
 flag_24 <= 2
 flag_25 <= 2
 flag_26 <= 2
 flag_27 <= 2
 flag_28 <= 2
 flag_29 <= 2
 flag_30 <= 2
 flag_31 <= 2
 flag_32 <= 2
 flag_33 <= 2
 flag_34 <= 2
 flag_35 <= 2
 flag_36 <= 2
 flag_37 <= 2
 flag_38 <= 2
 flag_39 <= 2
 flag_40 <= 2
 flag_41 <= 2
 flag_42 <= 2
 flag_43 <= 2
 flag_44 <= 2
 flag_45 <= 2
 flag_46 <= 2
 flag_47 <= 2
 flag_48 <= 2
 flag_49 <= 2
 flag_50 <= 2
 flag_51 <= 2
 flag_52 <= 2
 flag_53 <= 2
 flag_54 <= 2
 flag_55 <= 2
 flag_56 <= 2
 flag_57 <= 2
 flag_58 <= 2
 flag_59 <= 2
 flag_60 <= 2
 flag_61 <= 2
 flag_62 <= 2
 flag_63 <= 2
Binaries
 L^0_0 R^0_0 L^0_1 R^0_1 L^0_2 R^0_2 L^0_3 R^0_3 L^0_4 R^0_4 L^0_5 R^0_5
 L^0_6 R^0_6 L^0_7 R^0_7 L^0_8 R^0_8 L^0_9 R^0_9 L^0_10 R^0_10 L^0_11
 R^0_11 L^0_12 R^0_12 L^0_13 R^0_13 L^0_14 R^0_14 L^0_15 R^0_15 K_0 K_1 K_2
 K_3 K_4 K_5 K_6 K_7 K_8 K_9 K_10 K_11 K_12 K_13 K_14 K_15 K_16 K_17 K_18
 K_19 K_20 K_21 K_22 K_23 K_24 K_25 K_26 K_27 K_28 K_29 K_30 K_31 K_32 K_33
 K_34 K_35 K_36 K_37 K_38 K_39 K_40 K_41 K_42 K_43 K_44 K_45 K_46 K_47 K_48
 K_49 K_50 K_51 K_52 K_53 K_54 K_55 K_56 K_57 K_58 K_59 K_60 K_61 K_62 K_63
 RK^0_0 a^1_0 b^1_0 c^1_0 e^1_0 f^1_0 g^1_0 L^1_0 R^1_0 RK^0_1 a^1_1 b^1_1
 c^1_1 e^1_1 f^1_1 g^1_1 L^1_1 R^1_1 RK^0_2 a^1_2 b^1_2 c^1_2 e^1_2 f^1_2
 g^1_2 L^1_2 R^1_2 RK^0_3 a^1_3 b^1_3 c^1_3 e^1_3 f^1_3 g^1_3 L^1_3 R^1_3
 RK^0_4 a^1_4 b^1_4 c^1_4 e^1_4 f^1_4 g^1_4 L^1_4 R^1_4 RK^0_5 a^1_5 b^1_5
 c^1_5 e^1_5 f^1_5 g^1_5 L^1_5 R^1_5 RK^0_6 a^1_6 b^1_6 c^1_6 e^1_6 f^1_6
 g^1_6 L^1_6 R^1_6 RK^0_7 a^1_7 b^1_7 c^1_7 e^1_7 f^1_7 g^1_7 L^1_7 R^1_7
 RK^0_8 a^1_8 b^1_8 c^1_8 e^1_8 f^1_8 g^1_8 L^1_8 R^1_8 RK^0_9 a^1_9 b^1_9
 c^1_9 e^1_9 f^1_9 g^1_9 L^1_9 R^1_9 RK^0_10 a^1_10 b^1_10 c^1_10 e^1_10
 f^1_10 g^1_10 L^1_10 R^1_10 RK^0_11 a^1_11 b^1_11 c^1_11 e^1_11 f^1_11
 g^1_11 L^1_11 R^1_11 RK^0_12 a^1_12 b^1_12 c^1_12 e^1_12 f^1_12 g^1_12
 L^1_12 R^1_12 RK^0_13 a^1_13 b^1_13 c^1_13 e^1_13 f^1_13 g^1_13 L^1_13
 R^1_13 RK^0_14 a^1_14 b^1_14 c^1_14 e^1_14 f^1_14 g^1_14 L^1_14 R^1_14
 RK^0_15 a^1_15 b^1_15 c^1_15 e^1_15 f^1_15 g^1_15 L^1_15 R^1_15 d^1_0
 d^1_1 d^1_2 d^1_3 d^1_4 d^1_5 d^1_6 d^1_7 d^1_8 d^1_9 d^1_10 d^1_11 d^1_12
 d^1_13 RK^0_0_copy1 RK^0_0_copy2 L^0_0_copy1 L^0_0_copy2 R^0_0_copy1
 R^0_0_copy2 c^1_1_0_copy1 c^1_1_0_copy2 c^1_2_0_copy1 c^1_2_0_copy2
 RK^0_1_copy1 RK^0_1_copy2 L^0_1_copy1 L^0_1_copy2 R^0_1_copy1 R^0_1_copy2
 c^1_1_1_copy1 c^1_1_1_copy2 c^1_2_1_copy1 c^1_2_1_copy2 RK^0_2_copy1
 RK^0_2_copy2 L^0_2_copy1 L^0_2_copy2 R^0_2_copy1 R^0_2_copy2 c^1_1_2_copy1
 c^1_1_2_copy2 c^1_2_2_copy1 c^1_2_2_copy2 RK^0_3_copy1 RK^0_3_copy2
 L^0_3_copy1 L^0_3_copy2 R^0_3_copy1 R^0_3_copy2 c^1_1_3_copy1
 c^1_1_3_copy2 c^1_2_3_copy1 c^1_2_3_copy2 RK^0_4_copy1 RK^0_4_copy2
 L^0_4_copy1 L^0_4_copy2 R^0_4_copy1 R^0_4_copy2 c^1_1_4_copy1
 c^1_1_4_copy2 c^1_2_4_copy1 c^1_2_4_copy2 RK^0_5_copy1 RK^0_5_copy2
 L^0_5_copy1 L^0_5_copy2 R^0_5_copy1 R^0_5_copy2 c^1_1_5_copy1
 c^1_1_5_copy2 c^1_2_5_copy1 c^1_2_5_copy2 RK^0_6_copy1 RK^0_6_copy2
 L^0_6_copy1 L^0_6_copy2 R^0_6_copy1 R^0_6_copy2 c^1_1_6_copy1
 c^1_1_6_copy2 c^1_2_6_copy1 c^1_2_6_copy2 RK^0_7_copy1 RK^0_7_copy2
 L^0_7_copy1 L^0_7_copy2 R^0_7_copy1 R^0_7_copy2 c^1_1_7_copy1
 c^1_1_7_copy2 c^1_2_7_copy1 c^1_2_7_copy2 RK^0_8_copy1 RK^0_8_copy2
 L^0_8_copy1 L^0_8_copy2 R^0_8_copy1 R^0_8_copy2 c^1_1_8_copy1
 c^1_1_8_copy2 c^1_2_8_copy1 c^1_2_8_copy2 RK^0_9_copy1 RK^0_9_copy2
 L^0_9_copy1 L^0_9_copy2 R^0_9_copy1 R^0_9_copy2 c^1_1_9_copy1
 c^1_1_9_copy2 c^1_2_9_copy1 c^1_2_9_copy2 RK^0_10_copy1 RK^0_10_copy2
 L^0_10_copy1 L^0_10_copy2 R^0_10_copy1 R^0_10_copy2 c^1_1_10_copy1
 c^1_1_10_copy2 c^1_2_10_copy1 c^1_2_10_copy2 RK^0_11_copy1 RK^0_11_copy2
 L^0_11_copy1 L^0_11_copy2 R^0_11_copy1 R^0_11_copy2 c^1_1_11_copy1
 c^1_1_11_copy2 c^1_2_11_copy1 c^1_2_11_copy2 RK^0_12_copy1 RK^0_12_copy2
 L^0_12_copy1 L^0_12_copy2 R^0_12_copy1 R^0_12_copy2 c^1_1_12_copy1
 c^1_1_12_copy2 c^1_2_12_copy1 c^1_2_12_copy2 RK^0_13_copy1 RK^0_13_copy2
 L^0_13_copy1 L^0_13_copy2 R^0_13_copy1 R^0_13_copy2 c^1_1_13_copy1
 c^1_1_13_copy2 c^1_2_13_copy1 c^1_2_13_copy2 RK^0_14_copy1 RK^0_14_copy2
 L^0_14_copy1 L^0_14_copy2 R^0_14_copy1 R^0_14_copy2 RK^0_15_copy1
 RK^0_15_copy2 L^0_15_copy1 L^0_15_copy2 R^0_15_copy1 R^0_15_copy2
 e^1_3_0_copy1 e^1_3_0_copy2 e^1_9_0_copy1 e^1_9_0_copy2 e^1_14_0_copy1
 e^1_14_0_copy2 e^1_3_1_copy1 e^1_3_1_copy2 e^1_9_1_copy1 e^1_9_1_copy2
 e^1_14_1_copy1 e^1_14_1_copy2 e^1_3_2_copy1 e^1_3_2_copy2 e^1_9_2_copy1
 e^1_9_2_copy2 e^1_14_2_copy1 e^1_14_2_copy2 e^1_3_3_copy1 e^1_3_3_copy2
 e^1_9_3_copy1 e^1_9_3_copy2 e^1_14_3_copy1 e^1_14_3_copy2 e^1_3_4_copy1
 e^1_3_4_copy2 e^1_9_4_copy1 e^1_9_4_copy2 e^1_14_4_copy1 e^1_14_4_copy2
 e^1_3_5_copy1 e^1_3_5_copy2 e^1_9_5_copy1 e^1_9_5_copy2 e^1_14_5_copy1
 e^1_14_5_copy2 e^1_3_6_copy1 e^1_3_6_copy2 e^1_9_6_copy1 e^1_9_6_copy2
 e^1_14_6_copy1 e^1_14_6_copy2 e^1_3_7_copy1 e^1_3_7_copy2 e^1_9_7_copy1
 e^1_9_7_copy2 e^1_14_7_copy1 e^1_14_7_copy2 e^1_3_8_copy1 e^1_3_8_copy2
 e^1_9_8_copy1 e^1_9_8_copy2 e^1_14_8_copy1 e^1_14_8_copy2 e^1_3_9_copy1
 e^1_3_9_copy2 e^1_9_9_copy1 e^1_9_9_copy2 e^1_14_9_copy1 e^1_14_9_copy2
 e^1_3_10_copy1 e^1_3_10_copy2 e^1_9_10_copy1 e^1_9_10_copy2
 e^1_14_10_copy1 e^1_14_10_copy2 e^1_3_11_copy1 e^1_3_11_copy2
 e^1_9_11_copy1 e^1_9_11_copy2 e^1_14_11_copy1 e^1_14_11_copy2
 e^1_3_12_copy1 e^1_3_12_copy2 e^1_9_12_copy1 e^1_9_12_copy2
 e^1_14_12_copy1 e^1_14_12_copy2 e^1_3_13_copy1 e^1_3_13_copy2
 e^1_9_13_copy1 e^1_9_13_copy2 e^1_14_13_copy1 e^1_14_13_copy2
 e^1_3_14_copy1 e^1_3_14_copy2 e^1_9_14_copy1 e^1_9_14_copy2
 e^1_14_14_copy1 e^1_14_14_copy2 e^1_3_15_copy1 e^1_3_15_copy2
 e^1_9_15_copy1 e^1_9_15_copy2 e^1_14_15_copy1 e^1_14_15_copy2 f^1_0_copy1
 f^1_0_copy2 f^1_1_copy1 f^1_1_copy2 f^1_2_copy1 f^1_2_copy2 f^1_3_copy1
 f^1_3_copy2 f^1_4_copy1 f^1_4_copy2 f^1_5_copy1 f^1_5_copy2 f^1_6_copy1
 f^1_6_copy2 f^1_7_copy1 f^1_7_copy2 f^1_8_copy1 f^1_8_copy2 f^1_9_copy1
 f^1_9_copy2 f^1_10_copy1 f^1_10_copy2 f^1_11_copy1 f^1_11_copy2
 f^1_12_copy1 f^1_12_copy2 f^1_13_copy1 f^1_13_copy2 f^1_14_copy1
 f^1_14_copy2 f^1_15_copy1 f^1_15_copy2
Generals
 flag_0 flag_1 flag_2 flag_3 flag_4 flag_5 flag_6 flag_7 flag_8 flag_9
 flag_10 flag_11 flag_12 flag_13 flag_14 flag_15 flag_16 flag_17 flag_18
 flag_19 flag_20 flag_21 flag_22 flag_23 flag_24 flag_25 flag_26 flag_27
 flag_28 flag_29 flag_30 flag_31 flag_32 flag_33 flag_34 flag_35 flag_36
 flag_37 flag_38 flag_39 flag_40 flag_41 flag_42 flag_43 flag_44 flag_45
 flag_46 flag_47 flag_48 flag_49 flag_50 flag_51 flag_52 flag_53 flag_54
 flag_55 flag_56 flag_57 flag_58 flag_59 flag_60 flag_61 flag_62 flag_63
End
